(set-logic QF_S)
(declare-fun F () String)
(declare-fun E () String)
(assert (= (str.++  "d" F "bddddaaaaabacaddbdbaca" F "c" E "cad" F)  (str.++  "db" F "ddddaaaaabacadd" F "d" F "acabc" F "aba" F "caaddbda" F "acada" F "babaaabdabcdacad" F) ))
(check-sat)
(get-model)
